p cnf 193 200
-1 10 16 23 27 50 54 79 97 100 179 -14 -180 -185 -186 0 
-2 180 -185 -186 0 
-3 35 40 60 91 127 133 134 136 143 176 179 -14 -180 -185 -186 0 
-4 7 28 45 51 78 118 131 132 156 169 -5 181 -180 -185 -186 0 
-6 -7 4 28 45 51 78 118 131 132 156 169 -8 141 181 -180 -185 -186 0 
-9 44 73 -10 1 16 23 27 50 54 79 97 100 182 -180 -185 -186 0 
-9 44 73 -11 182 -180 -185 -186 0 
-12 -9 44 73 -13 -14 -15 24 56 103 148 166 183 -180 -185 -186 0 
-9 44 73 -16 1 10 23 27 50 54 79 97 100 182 -180 -185 -186 0 
-13 -12 183 -180 -185 -186 0 
-13 -17 -12 183 -180 -185 -186 0 
-18 184 -180 -185 -186 0 
-19 -20 33 42 52 64 80 109 113 152 172 174 175 184 -180 -185 -186 0 
-21 153 -22 173 185 -180 -186 0 
-23 1 10 16 27 50 54 79 97 100 184 -180 -185 -186 0 
-24 15 56 103 148 166 180 -185 -186 0 
-25 180 -185 -186 0 
-26 32 138 180 -185 -186 0 
-27 1 10 16 23 50 54 79 97 100 180 -185 -186 0 
-28 4 7 45 51 78 118 131 132 156 169 -29 180 -185 -186 0 
-30 59 69 -31 49 111 117 160 161 180 -185 -186 0 
-32 26 138 -33 20 42 52 64 80 109 113 152 172 174 175 -34 41 55 61 72 81 101 102 107 162 165 167 -35 3 40 60 91 127 133 134 136 143 176 179 -14 -180 -185 -186 0 
-36 186 -180 -185 0 
-37 -17 -38 -39 88 128 -40 3 35 60 91 127 133 134 136 143 176 179 -14 -180 -185 -186 0 
-30 59 69 180 -185 -186 0 
-41 34 55 61 72 81 101 102 107 162 165 167 -42 20 33 52 64 80 109 113 152 172 174 175 179 -14 -180 -185 -186 0 
-43 180 -185 -186 0 
-44 9 73 -45 4 7 28 51 78 118 131 132 156 169 -46 -47 -48 149 181 -180 -185 -186 0 
-17 -24 15 56 103 148 166 -49 31 111 117 160 161 180 -185 -186 0 
-32 26 138 -33 20 42 52 64 80 109 113 152 172 174 175 -50 1 10 16 23 27 54 79 97 100 179 -14 -180 -185 -186 0 
-38 -32 26 138 -50 1 10 16 23 27 54 79 97 100 179 -14 -180 -185 -186 0 
-51 4 7 28 45 78 118 131 132 156 169 -52 20 33 42 64 80 109 113 152 172 174 175 -53 183 -180 -185 -186 0 
-54 1 10 16 23 27 50 79 97 100 187 -180 -185 -186 0 
-55 34 41 61 72 81 101 102 107 162 165 167 180 -185 -186 0 
-56 15 24 103 148 166 180 -185 -186 0 
-57 180 -185 -186 0 
-32 26 138 -58 186 -180 -185 0 
-59 30 69 -60 3 35 40 91 127 133 134 136 143 176 -9 44 73 -61 34 41 55 72 81 101 102 107 162 165 167 182 -180 -185 -186 0 
-62 -63 182 -180 -185 -186 0 
-15 24 56 103 148 166 -5 183 -180 -185 -186 0 
-64 20 33 42 52 80 109 113 152 172 174 175 -65 182 -180 -185 -186 0 
-66 -67 182 -180 -185 -186 0 
-68 182 -180 -185 -186 0 
-10 1 16 23 27 50 54 79 97 100 -69 30 59 188 -180 -185 -186 0 
-9 44 73 180 -185 -186 0 
-70 182 -180 -185 -186 0 
-71 104 106 188 -180 -185 -186 0 
-69 30 59 188 -180 -185 -186 0 
-72 34 41 55 61 81 101 102 107 162 165 167 182 -180 -185 -186 0 
-73 9 44 189 -180 -185 -186 0 
-74 178 183 -180 -185 -186 0 
-75 180 -185 -186 0 
-26 32 138 -57 180 -185 -186 0 
-24 15 56 103 148 166 -57 180 -185 -186 0 
-76 85 -77 164 -57 179 -14 -180 -185 -186 0 
-78 4 7 28 45 51 118 131 132 156 169 180 -185 -186 0 
-79 1 10 16 23 27 50 54 97 100 180 -185 -186 0 
-80 20 33 42 52 64 109 113 152 172 174 175 180 -185 -186 0 
-81 34 41 55 61 72 101 102 107 162 165 167 180 -185 -186 0 
-82 130 180 -185 -186 0 
-24 15 56 103 148 166 -83 180 -185 -186 0 
-14 -75 -84 180 -185 -186 0 
-75 -83 180 -185 -186 0 
-28 4 7 45 51 78 118 131 132 156 169 180 -185 -186 0 
-85 76 180 -185 -186 0 
-86 155 180 -185 -186 0 
-5 182 -180 -185 -186 0 
-20 33 42 52 64 80 109 113 152 172 174 175 184 -180 -185 -186 0 
-26 32 138 -24 15 56 103 148 166 180 -185 -186 0 
-3 35 40 60 91 127 133 134 136 143 176 -87 179 -14 -180 -185 -186 0 
-88 39 128 179 -14 -180 -185 -186 0 
-89 -90 115 184 -180 -185 -186 0 
-91 3 35 40 60 127 133 134 136 143 176 -92 190 -180 -185 -186 0 
-93 191 -180 -185 -186 -9 -44 -73 0 
-94 180 -185 -186 0 
-95 180 -185 -186 0 
-21 153 -96 -57 180 -185 -186 0 
-97 1 10 16 23 27 50 54 79 100 187 -180 -185 -186 0 
-21 153 -1 10 16 23 27 50 54 79 97 100 179 -14 -180 -185 -186 0 
-98 180 -185 -186 0 
-99 180 -185 -186 0 
-100 1 10 16 23 27 50 54 79 97 180 -185 -186 0 
-101 34 41 55 61 72 81 102 107 162 165 167 179 -14 -180 -185 -186 0 
-102 34 41 55 61 72 81 101 107 162 165 167 179 -14 -180 -185 -186 0 
-90 115 -103 15 24 56 148 166 184 -180 -185 -186 0 
-65 182 -180 -185 -186 0 
-104 71 106 183 -180 -185 -186 0 
-105 -92 190 -180 -185 -186 0 
-13 -106 71 104 -107 34 41 55 61 72 81 101 102 162 165 167 183 -180 -185 -186 0 
-108 179 -14 -180 -185 -186 0 
-109 20 33 42 52 64 80 113 152 172 174 175 -24 15 56 103 148 166 180 -185 -186 0 
-109 20 33 42 52 64 80 113 152 172 174 175 180 -185 -186 0 
-14 -109 20 33 42 52 64 80 113 152 172 174 175 180 -185 -186 0 
-110 191 -180 -185 -186 -9 -44 -73 0 
-3 35 40 60 91 127 133 134 136 143 176 -42 20 33 52 64 80 109 113 152 172 174 175 179 -14 -180 -185 -186 0 
-21 153 -3 35 40 60 91 127 133 134 136 143 176 -42 20 33 52 64 80 109 113 152 172 174 175 179 -14 -180 -185 -186 0 
-24 15 56 103 148 166 -111 31 49 117 160 161 180 -185 -186 0 
-112 114 -113 20 33 42 52 64 80 109 152 172 174 175 184 -180 -185 -186 0 
-21 153 180 -185 -186 0 
-114 112 -14 -115 90 -113 20 33 42 52 64 80 109 152 172 174 175 184 -180 -185 -186 0 
-116 184 -180 -185 -186 0 
-17 -3 35 40 60 91 127 133 134 136 143 176 -42 20 33 52 64 80 109 113 152 172 174 175 179 -14 -180 -185 -186 0 
-24 15 56 103 148 166 -117 31 49 111 160 161 180 -185 -186 0 
-118 4 7 28 45 51 78 131 132 156 169 -119 125 180 -185 -186 0 
-75 -96 180 -185 -186 0 
-24 15 56 103 148 166 -96 180 -185 -186 0 
-32 26 138 -96 180 -185 -186 0 
-32 26 138 -120 129 -121 186 -180 -185 0 
-42 20 33 52 64 80 109 113 152 172 174 175 -41 34 55 61 72 81 101 102 107 162 165 167 179 -14 -180 -185 -186 0 
-122 -65 191 -180 -185 -186 -9 -44 -73 0 
-65 191 -180 -185 -186 -9 -44 -73 0 
-123 180 -185 -186 0 
-119 125 -96 180 -185 -186 0 
-124 -125 119 182 -180 -185 -186 0 
-9 44 73 -126 182 -180 -185 -186 0 
-9 44 73 -127 3 35 40 60 91 133 134 136 143 176 182 -180 -185 -186 0 
-128 39 88 -111 31 49 117 160 161 180 -185 -186 0 
-96 180 -185 -186 0 
-129 120 180 -185 -186 0 
-82 130 -24 15 56 103 148 166 180 -185 -186 0 
-14 -130 82 -86 155 180 -185 -186 0 
-131 4 7 28 45 51 78 118 132 156 169 180 -185 -186 0 
-75 -24 15 56 103 148 166 180 -185 -186 0 
-4 7 28 45 51 78 118 131 132 156 169 180 -185 -186 0 
-14 -25 180 -185 -186 0 
-132 4 7 28 45 51 78 118 131 156 169 180 -185 -186 0 
-133 3 35 40 60 91 127 134 136 143 176 180 -185 -186 0 
-17 -78 4 7 28 45 51 118 131 132 156 169 180 -185 -186 0 
-134 3 35 40 60 91 127 133 136 143 176 180 -185 -186 0 
-135 180 -185 -186 0 
-136 3 35 40 60 91 127 133 134 143 176 -137 192 -180 -185 -186 0 
-137 192 -180 -185 -186 0 
-138 26 32 179 -14 -180 -185 -186 0 
-14 -32 26 138 -80 20 33 42 52 64 109 113 152 172 174 175 180 -185 -186 0 
-139 142 180 -185 -186 0 
-140 180 -185 -186 0 
-141 8 180 -185 -186 0 
-142 139 180 -185 -186 0 
-143 3 35 40 60 91 127 133 134 136 176 180 -185 -186 0 
-14 -21 153 -141 8 180 -185 -186 0 
-144 180 -185 -186 0 
-145 191 -180 -185 -186 -9 -44 -73 0 
-146 191 -180 -185 -186 -9 -44 -73 0 
-147 191 -180 -185 -186 -9 -44 -73 0 
-148 15 24 56 103 166 191 -180 -185 -186 -9 -44 -73 0 
-149 48 -150 -151 193 -180 -185 -186 0 
-147 -151 181 -180 -185 -186 0 
-152 20 33 42 52 64 80 109 113 172 174 175 187 -180 -185 -186 0 
-141 8 191 -180 -185 -186 -9 -44 -73 0 
-153 21 -83 180 -185 -186 0 
-154 -83 180 -185 -186 0 
-155 86 180 -185 -186 0 
-102 34 41 55 61 72 81 101 107 162 165 167 -94 191 -180 -185 -186 -9 -44 -73 0 
-14 -43 180 -185 -186 0 
-156 4 7 28 45 51 78 118 131 132 169 180 -185 -186 0 
-37 179 -14 -180 -185 -186 0 
-17 -24 15 56 103 148 166 180 -185 -186 0 
-9 44 73 -157 180 -185 -186 0 
-41 34 55 61 72 81 101 102 107 162 165 167 -87 179 -14 -180 -185 -186 0 
-26 32 138 -33 20 42 52 64 80 109 113 152 172 174 175 185 -180 -186 0 
-38 -32 26 138 186 -180 -185 0 
-21 153 -33 20 42 52 64 80 109 113 152 172 174 175 185 -180 -186 0 
-153 21 -96 186 -180 -185 0 
-158 185 -180 -186 0 
-153 21 186 -180 -185 0 
-32 26 138 186 -180 -185 0 
-159 188 -180 -185 -186 0 
-14 -21 153 -134 3 35 40 60 91 127 133 136 143 176 -160 31 49 111 117 161 180 -185 -186 0 
-14 -134 3 35 40 60 91 127 133 136 143 176 -161 31 49 111 117 160 180 -185 -186 0 
-162 34 41 55 61 72 81 101 102 107 165 167 179 -14 -180 -185 -186 0 
-96 -57 180 -185 -186 0 
-24 15 56 103 148 166 -163 180 -185 -186 0 
-164 77 180 -185 -186 0 
-32 26 138 -121 186 -180 -185 0 
-165 34 41 55 61 72 81 101 102 107 162 167 191 -180 -185 -186 -9 -44 -73 0 
-166 15 24 56 103 148 180 -185 -186 0 
-38 -166 15 24 56 103 148 180 -185 -186 0 
-128 39 88 180 -185 -186 0 
-167 34 41 55 61 72 81 101 102 107 162 165 180 -185 -186 0 
-14 -24 15 56 103 148 166 180 -185 -186 0 
-38 -43 180 -185 -186 0 
-14 -157 180 -185 -186 0 
-168 180 -185 -186 0 
-157 180 -185 -186 0 
-17 -128 39 88 -129 120 180 -185 -186 0 
-169 4 7 28 45 51 78 118 131 132 156 -170 187 -180 -185 -186 0 
-171 180 -185 -186 0 
-172 20 33 42 52 64 80 109 113 152 174 175 180 -185 -186 0 
-153 21 -173 22 179 -14 -180 -185 -186 0 
-172 20 33 42 52 64 80 109 113 152 174 175 191 -180 -185 -186 -9 -44 -73 0 
-174 20 33 42 52 64 80 109 113 152 172 175 191 -180 -185 -186 -9 -44 -73 0 
-141 8 -129 120 191 -180 -185 -186 -9 -44 -73 0 
-174 20 33 42 52 64 80 109 113 152 172 175 180 -185 -186 0 
-175 20 33 42 52 64 80 109 113 152 172 174 191 -180 -185 -186 -9 -44 -73 0 
-176 3 35 40 60 91 127 133 134 136 143 179 -14 -180 -185 -186 0 
-175 20 33 42 52 64 80 109 113 152 172 174 180 -185 -186 0 
-177 179 -14 -180 -185 -186 0 
-75 -178 74 180 -185 -186 0 
-32 26 138 -102 34 41 55 61 72 81 101 107 162 165 167 179 -14 -180 -185 -186 0 
-3 35 40 60 91 127 133 134 136 143 176 -88 39 128 179 -14 -180 -185 -186 0 
